Version identifier: 22.1.1.0 | 2022-11-28 | 9160aff4d
CPXPARAM_ClockType                               1
CPXPARAM_Read_DataCheck                          1
CPXPARAM_Threads                                 1
CPXPARAM_TimeLimit                               7200
CPXPARAM_MIP_Tolerances_AbsMIPGap                0
CPXPARAM_MIP_Tolerances_MIPGap                   0
CPXPARAM_MIP_Tolerances_Integrality              0
Tried aggregator 2 times.
MIP Presolve eliminated 2953 rows and 1 columns.
MIP Presolve modified 1062 coefficients.
Aggregator did 500 substitutions.
Reduced MIP has 5246 rows, 2499 columns, and 16054 nonzeros.
Reduced MIP has 2499 binaries, 0 generals, 0 SOSs, and 0 indicators.
Presolve time = 0.03 sec. (21.03 ticks)
Found incumbent of value 140.000000 after 0.07 sec. (43.85 ticks)
Probing time = 0.01 sec. (3.70 ticks)
Tried aggregator 1 time.
Detecting symmetries...
MIP Presolve eliminated 201 rows and 2 columns.
Reduced MIP has 5045 rows, 2497 columns, and 15050 nonzeros.
Reduced MIP has 2497 binaries, 0 generals, 0 SOSs, and 0 indicators.
Presolve time = 0.02 sec. (16.37 ticks)
Probing time = 0.00 sec. (3.20 ticks)
Clique table members: 4673.
MIP emphasis: balance optimality and feasibility.
MIP search method: dynamic search.
Parallel mode: none, using 1 thread.
Root relaxation solution time = 0.08 sec. (40.56 ticks)

        Nodes                                         Cuts/
   Node  Left     Objective  IInf  Best Integer    Best Bound    ItCnt     Gap

*     0+    0                          140.0000      500.0000           257.14%
      0     0      500.0000   797      140.0000      500.0000      564  257.14%
      0     0      304.0000   968      140.0000    Cuts: 1301     2933  117.14%
*     0+    0                          172.0000      304.0000            76.74%
      0     0      200.0000  1083      172.0000     Cuts: 515     3703   16.28%
      0     0      200.0000  1083      172.0000  ZeroHalf: 88     4098   16.28%
*     0+    0                          174.0000      200.0000            14.94%
*     0+    0                          178.0000      200.0000            12.36%
*     0+    0                          184.0000      200.0000             8.70%
      0     0        cutoff            184.0000      200.0000     4098    8.70%
*     0+    0                          198.0000      200.0000             1.01%
Detecting symmetries...
      0     2      200.0000   677      198.0000      200.0000     4098    1.01%
Elapsed time = 2.77 sec. (1723.30 ticks, tree = 0.01 MB, solutions = 6)
      1     3      200.0000   918      198.0000      200.0000     6741    1.01%
      3     5      200.0000   591      198.0000      200.0000     8245    1.01%
      7     9      200.0000   625      198.0000      200.0000    10434    1.01%
     15    17      200.0000   766      198.0000      200.0000    11819    1.01%
     24    26      200.0000   710      198.0000      200.0000    13465    1.01%
     51    53      200.0000   484      198.0000      200.0000    14451    1.01%
     88    90      200.0000    88      198.0000      200.0000    15453    1.01%
*    90     2      integral     0      200.0000      200.0000    15486    0.00%

GUB cover cuts applied:  12
Clique cuts applied:  9
Cover cuts applied:  986
Implied bound cuts applied:  1
Mixed integer rounding cuts applied:  1
Zero-half cuts applied:  16
Gomory fractional cuts applied:  259

Root node processing (before b&c):
  Real time             =    2.76 sec. (1719.16 ticks)
Sequential b&c:
  Real time             =    3.13 sec. (2058.37 ticks)
                          ------------
Total (root+branch&cut) =    5.89 sec. (3777.53 ticks)
Solution is feasible.

---------------------
@@@ MIP_optimal
>>> Benchmark sw100-2.cnf k 2 OPT 200 TimeCost 6.528102159500122 TimeSolve 5.951005458831787 TimeRead 0.007306098937988281 TimeTrans 0.5697906017303467
